set Q := 0 1 2 3 4;
set R := 0 1 2 3 4;

set GRID := 
    (0,0) (0,1) (0,2) (0,3) (0,4) 
    (1,0) (1,1) (1,2) (1,3) (1,4)
    (2,0) (2,1) (2,2) (2,3) (2,4)
    (3,0) (3,1) (3,2) (3,3) (3,4) 
    (4,0) (4,1) (4,2) (4,3) (4,4)

    #(0,0) (0,1) (0,2) (0,3) (0,4) (0,5)   
    #(1,0) (1,1) (1,2) (1,3) (1,4) (1,5)
    #(2,0) (2,1) (2,2) (2,3) (2,4) (2,5)  
    #(3,0) (3,1) (3,2) (3,3) (3,4) (3,5) 
    #(4,0) (4,1) (4,2) (4,3) (4,4) (4,5)
    #(5,0) (5,1) (5,2) (5,3) (5,4) (5,5)

    #(0,0) (0,1) (0,2) (0,3) (0,4) (0,5) (0,6)  
    #(1,0) (1,1) (1,2) (1,3) (1,4) (1,5) (1,6) 
    #(2,0) (2,1) (2,2) (2,3) (2,4) (2,5) (2,6) 
    #(3,0) (3,1) (3,2) (3,3) (3,4) (3,5) (3,6) 
    #(4,0) (4,1) (4,2) (4,3) (4,4) (4,5) (4,6)  
    #(5,0) (5,1) (5,2) (5,3) (5,4) (5,5) (5,6)
    #(6,0) (6,1) (6,2) (6,3) (6,4) (6,5) (6,6) 
    ;

set TARGETS := 
	#10 targets
	(0,3) 
    (1,0) (1,2) (1,4) 
    (2,3)
    (3,1) (3,4)
    (4,0) (4,2) (4,3)
    
    #13 targets
    #(0,3) (0,4) (2,3) (2,0) (4,0)
    #(4,3) (3,3) (3,0) (1,0) (0,2)
    #(1,2) (3,1) (1,4)
    
    #18 targets
    #(0,1) (0,3) (0,5)
    #(1,0) (1,1) (1,2) (1,4)
    #(2,1) (2,2) (2,3)
    #(3,1) (3,2) (3,4) 
    #(4,1) (4,4)
    #(5,0) (5,2) (5,3)
    
    #6x6 22 targets
    #(0,2) (0,3) 
    #(1,0) (1,1) (1,2) (1,3) (1,4)
    #(2,1) (2,2) (2,3) (2,4) (2,5)
    #(3,0) (3,1) (3,2) (3,3)
    #(4,0) (4,1) (4,5)
    #(5,1) (5,2) (5,3)    
    
    #7x7 25 targets
	#(0,3) (0,5) (0,6)   
	#(1,1) (1,3) (1,4) (1,6)
	#(2,1) (2,3) (2,5)               
    #(3,1) (3,2) (3,4) (3,5)
    #(4,0) (4,4) (4,6)
    #(5,0) (5,2) (5,3) (5,4)
    #(6,0) (6,3) (6,4) (6,5)
    ;

param TM := 30;      
param TDmax := 8; 
param origin_q := 0;  
param origin_r := 0;
param dest_q   := 4; #3
param dest_r   := 4; #5
param d_step := 1;

param Vu :=
Drone1 5 
Drone2 5 
;

param t_charge :=
Drone1 1
Drone2 1
;

